<number of tasks>
35

<cycle time>
54

<task times>
1 29
2 3
3 5
4 22
5 6
6 14
7 2
8 5
9 22
10 30
11 23
12 30
13 23
14 2
15 19
16 29
17 2
18 2
19 19
20 29
21 6
22 10
23 16
24 23
25 5
26 5
27 5
28 40
29 2
30 5
31 5
32 1
33 40
34 2
35 2

<precedence relations>
1,2
1,5
1,10
1,12
2,3
3,4
4,11
5,6
6,7
6,8
7,14
7,18
8,9
9,13
10,14
11,28
11,33
12,18
13,28
13,33
14,15
15,16
16,21
17,20
18,19
19,20
20,21
21,22
21,25
21,30
22,23
23,24
24,27
25,26
26,27
27,28
27,33
27,34
28,29
30,31
31,32
32,33
33,35

<setup times forward>
1,2:5
1,10:5
1,12:2
2,3:7
2,5:5
2,6:5
2,7:5
2,8:7
2,9:7
2,12:3
2,13:3
2,16:4
2,17:5
2,18:4
2,19:8
2,20:8
2,21:8
2,22:5
2,23:5
2,24:5
2,25:5
2,26:9
2,27:9
2,30:2
2,31:2
2,32:2
2,34:9
3,5:2
3,6:2
3,7:2
3,10:7
3,12:4
3,13:4
3,14:7
3,15:7
3,16:3
3,17:2
3,18:3
3,19:1
3,20:1
3,21:1
3,22:2
3,23:2
3,24:2
3,25:2
3,26:2
3,27:2
3,30:5
3,31:5
3,32:5
3,34:2
4,5:2
4,6:2
4,7:2
4,10:7
4,11:3
4,12:4
4,13:4
4,14:7
4,15:7
4,16:3
4,17:2
4,18:3
4,19:1
4,20:1
4,21:1
4,22:2
4,23:2
4,24:2
4,25:2
4,26:2
4,27:2
4,30:5
4,31:5
4,32:5
4,34:2
5,2:5
5,3:2
5,4:2
5,10:5
5,11:1
5,12:2
6,2:5
6,3:2
6,4:2
6,8:2
6,10:5
6,11:1
6,12:2
7,2:5
7,3:2
7,4:2
7,8:2
7,9:2
7,10:5
7,11:1
7,12:2
7,13:2
7,14:5
7,18:1
8,2:7
8,7:2
8,10:7
8,11:3
8,12:4
8,14:7
8,15:7
8,16:3
8,17:2
8,18:3
8,19:1
8,20:1
8,21:1
8,22:2
8,23:2
8,24:2
8,25:2
8,26:2
8,27:2
8,30:5
8,31:5
8,32:5
8,34:2
9,2:7
9,7:2
9,10:7
9,11:3
9,12:4
9,13:4
9,14:7
9,15:7
9,16:3
9,17:2
9,18:3
9,19:1
9,20:1
9,21:1
9,22:2
9,23:2
9,24:2
9,25:2
9,26:2
9,27:2
9,30:5
9,31:5
9,32:5
9,34:2
10,3:7
10,4:7
10,5:5
10,6:5
10,7:5
10,8:7
10,9:7
10,11:4
10,12:3
10,13:3
10,17:5
10,18:4
10,19:8
10,20:8
11,5:1
11,6:1
11,7:1
11,8:3
11,9:3
11,10:4
11,12:1
11,13:1
11,14:4
11,15:4
11,17:1
11,19:4
11,20:4
11,21:4
11,22:1
11,23:1
11,24:1
11,25:1
11,26:5
11,27:5
11,28:5
11,30:2
11,31:2
11,32:2
11,33:2
11,34:5
12,2:3
12,3:4
12,4:4
12,5:2
12,6:2
12,7:2
12,8:4
12,9:4
12,10:3
12,11:1
12,14:3
12,15:3
12,16:1
12,17:2
12,18:1
13,2:3
13,3:4
13,4:4
13,7:2
13,10:3
13,11:1
13,14:3
13,15:3
13,16:1
13,17:2
13,18:1
13,19:5
13,20:5
13,21:5
13,22:2
13,23:2
13,24:2
13,25:2
13,26:6
13,27:6
13,28:6
13,30:1
13,31:1
13,32:1
13,33:1
13,34:6
14,3:7
14,4:7
14,8:7
14,9:7
14,11:4
14,12:3
14,13:3
14,17:5
14,18:4
14,19:8
14,20:8
15,3:7
15,4:7
15,8:7
15,9:7
15,11:4
15,12:3
15,13:3
15,16:4
15,17:5
15,18:4
15,19:8
15,20:8
16,2:4
16,3:3
16,4:3
16,8:3
16,9:3
16,12:1
16,13:1
16,17:1
16,19:4
16,20:4
16,21:4
17,2:5
17,3:2
17,4:2
17,8:2
17,9:2
17,10:5
17,11:1
17,12:2
17,13:2
17,14:5
17,15:5
17,16:1
17,18:1
17,19:3
17,20:3
18,2:4
18,3:3
18,4:3
18,8:3
18,9:3
18,10:4
18,13:1
18,14:4
18,15:4
18,17:1
18,19:4
19,2:8
19,3:1
19,4:1
19,8:1
19,9:1
19,10:8
19,11:4
19,13:5
19,14:8
19,15:8
19,16:4
19,17:3
20,2:8
20,3:1
20,4:1
20,8:1
20,9:1
20,10:8
20,11:4
20,13:5
20,14:8
20,15:8
20,16:4
21,2:8
21,3:1
21,4:1
21,8:1
21,9:1
21,11:4
21,13:5
21,22:3
21,25:3
21,30:6
22,2:5
22,3:2
22,4:2
22,8:2
22,9:2
22,11:1
22,13:2
22,26:4
22,30:3
22,31:3
22,32:3
23,2:5
23,3:2
23,4:2
23,8:2
23,9:2
23,11:1
23,13:2
23,26:4
23,30:3
23,31:3
23,32:3
24,2:5
24,3:2
24,4:2
24,8:2
24,9:2
24,11:1
24,13:2
24,26:4
24,27:4
24,30:3
24,31:3
24,32:3
25,2:5
25,3:2
25,4:2
25,8:2
25,9:2
25,11:1
25,13:2
25,26:4
25,30:3
25,31:3
25,32:3
26,2:9
26,3:2
26,4:2
26,8:2
26,9:2
26,11:5
26,13:6
26,22:4
26,23:4
26,24:4
26,30:7
26,31:7
26,32:7
27,2:9
27,3:2
27,4:2
27,8:2
27,9:2
27,11:5
27,13:6
27,30:7
27,31:7
27,32:7
27,33:7
28,30:7
28,31:7
28,32:7
28,33:7
28,35:7
29,30:7
29,31:7
29,32:7
29,33:7
29,35:7
30,2:2
30,3:5
30,4:5
30,8:5
30,9:5
30,11:2
30,13:1
30,22:3
30,23:3
30,24:3
30,25:3
30,26:7
30,27:7
30,28:7
30,29:7
30,34:7
31,2:2
31,3:5
31,4:5
31,8:5
31,9:5
31,11:2
31,13:1
31,22:3
31,23:3
31,24:3
31,25:3
31,26:7
31,27:7
31,28:7
31,29:7
31,34:7
32,2:2
32,3:5
32,4:5
32,8:5
32,9:5
32,11:2
32,13:1
32,22:3
32,23:3
32,24:3
32,25:3
32,26:7
32,27:7
32,28:7
32,29:7
32,34:7
33,28:7
33,29:7
33,34:7
34,2:9
34,3:2
34,4:2
34,8:2
34,9:2
34,11:5
34,13:6
34,30:7
34,31:7
34,32:7
34,33:7
34,35:7
35,28:7
35,29:7
35,34:7

<setup times backward>
2,1:5
2,5:5
2,6:5
2,7:5
2,8:7
2,9:7
2,12:3
2,13:3
2,16:4
2,17:5
2,18:4
2,19:8
2,20:8
2,21:8
2,22:5
2,23:5
2,24:5
2,25:5
2,26:9
2,27:9
2,30:2
2,31:2
2,32:2
2,34:9
3,19:1
3,20:1
3,21:1
3,26:2
3,27:2
3,34:2
4,19:1
4,20:1
4,21:1
4,26:2
4,27:2
4,34:2
5,3:2
5,4:2
6,3:2
6,4:2
7,3:2
7,4:2
7,8:2
7,9:2
8,19:1
8,20:1
8,21:1
8,26:2
8,27:2
8,34:2
9,19:1
9,20:1
9,21:1
9,26:2
9,27:2
9,34:2
10,1:5
10,3:7
10,4:7
10,5:5
10,6:5
10,7:5
10,8:7
10,9:7
10,11:4
10,12:3
10,13:3
10,17:5
10,18:4
10,19:8
10,20:8
11,1:1
11,3:3
11,4:3
11,5:1
11,6:1
11,7:1
11,8:3
11,9:3
11,17:1
11,19:4
11,20:4
11,21:4
11,22:1
11,23:1
11,24:1
11,25:1
11,26:5
11,27:5
11,34:5
12,1:2
12,3:4
12,4:4
12,5:2
12,6:2
12,7:2
12,8:4
12,9:4
12,11:1
12,16:1
12,17:2
13,1:2
13,3:4
13,4:4
13,5:2
13,6:2
13,7:2
13,8:4
13,9:4
13,11:1
13,16:1
13,17:2
13,18:1
13,19:5
13,20:5
13,21:5
13,22:2
13,23:2
13,24:2
13,25:2
13,26:6
13,27:6
13,34:6
14,1:5
14,3:7
14,4:7
14,5:5
14,6:5
14,7:5
14,8:7
14,9:7
14,11:4
14,12:3
14,13:3
14,17:5
14,18:4
14,19:8
14,20:8
15,1:5
15,3:7
15,4:7
15,5:5
15,6:5
15,7:5
15,8:7
15,9:7
15,11:4
15,12:3
15,13:3
15,17:5
15,18:4
15,19:8
15,20:8
16,1:1
16,3:3
16,4:3
16,5:1
16,6:1
16,7:1
16,8:3
16,9:3
16,17:1
16,19:4
16,20:4
17,3:2
17,4:2
17,8:2
17,9:2
17,19:3
18,1:1
18,3:3
18,4:3
18,5:1
18,6:1
18,7:1
18,8:3
18,9:3
18,17:1
22,3:2
22,4:2
22,8:2
22,9:2
22,19:3
22,20:3
22,21:3
22,26:4
23,3:2
23,4:2
23,8:2
23,9:2
23,19:3
23,20:3
23,21:3
23,26:4
24,3:2
24,4:2
24,8:2
24,9:2
24,19:3
24,20:3
24,21:3
24,26:4
25,3:2
25,4:2
25,8:2
25,9:2
25,19:3
25,20:3
25,21:3
30,1:3
30,3:5
30,4:5
30,5:3
30,6:3
30,7:3
30,8:5
30,9:5
30,11:2
30,12:1
30,13:1
30,16:2
30,17:3
30,18:2
30,19:6
30,20:6
30,21:6
30,22:3
30,23:3
30,24:3
30,25:3
30,26:7
30,27:7
30,28:7
30,29:7
30,34:7
31,1:3
31,3:5
31,4:5
31,5:3
31,6:3
31,7:3
31,8:5
31,9:5
31,11:2
31,12:1
31,13:1
31,16:2
31,17:3
31,18:2
31,19:6
31,20:6
31,21:6
31,22:3
31,23:3
31,24:3
31,25:3
31,26:7
31,27:7
31,28:7
31,29:7
31,34:7
32,1:3
32,3:5
32,4:5
32,5:3
32,6:3
32,7:3
32,8:5
32,9:5
32,11:2
32,12:1
32,13:1
32,16:2
32,17:3
32,18:2
32,19:6
32,20:6
32,21:6
32,22:3
32,23:3
32,24:3
32,25:3
32,26:7
32,27:7
32,28:7
32,29:7
32,34:7
33,1:3
33,3:5
33,4:5
33,5:3
33,6:3
33,7:3
33,8:5
33,9:5
33,11:2
33,12:1
33,13:1
33,16:2
33,17:3
33,18:2
33,19:6
33,20:6
33,21:6
33,22:3
33,23:3
33,24:3
33,25:3
33,26:7
33,27:7
33,28:7
33,29:7
33,34:7
35,1:3
35,3:5
35,4:5
35,5:3
35,6:3
35,7:3
35,8:5
35,9:5
35,11:2
35,12:1
35,13:1
35,16:2
35,17:3
35,18:2
35,19:6
35,20:6
35,21:6
35,22:3
35,23:3
35,24:3
35,25:3
35,26:7
35,27:7
35,28:7
35,29:7
35,34:7

<end>

<optimal SALBP-1 value>
9


<rand seed>
467321153

